Maximize
	- 1 x1 - 3 x2 - 2 x3 
Maximize
	- 4 x1 + 1 x2 - 3 x3 
Maximize
	+ 4 x2 - 3 x3 + 2 x4 
Subject To
	+ 6 x1 - 3 x3 + 2 x4 <= 10
Bounds
	0 <= x1 <= 4
	0 <= x2 <= 4
	0 <= x3 <= 4
	0 <= x4 <= 4
Integers
	x1 x2 x3 x4 
End